100
128
18
14
22
23
2
7
13
40
14
1
27
18
12
43
2
6
57
28
62
3
7
1
53
20
16
6
17
43
31
33
27
13
24
16
20
31
14
16
15
15
59
21
33
20
16
15
15
11
61
19
60
13
15
37
18
18
30
20
26
52
55
14
6
23
30
37
7
52
29
11
26
59
58
29
41
10
52
30
63
54
49
36
63
34
31
43
31
30
48
34
64
62
5
39
14
22
48
58
9
4